c 1 A1
c 2 C2
c 3 C3
c 4 C4
c 5 C5
c 6 C6
c 7 C7
c 8 C9
c 9 C10
c 10 A8
c 11 C11
c 12 C12
c 13 C13
c 14 C14
c 15 C15
c 16 C16
p cnf 16 18
1 0
1 -2 0
1 -3 0
1 -4 0
1 -5 0
1 -6 0
1 -7 0
1 -10 0
1 -8 0
1 -9 0
10 -11 0
10 -12 0
10 -13 0
10 -14 0
10 -15 0
10 -16 0
11 12 13 14 15 16 -10 0
-4 8 0

